
Gurobi 9.1.2 (win64) logging started Tue Dec  7 13:45:12 2021

Gurobi Optimizer version 9.1.2 build v9.1.2rc0 (win64)
Thread count: 8 physical cores, 8 logical processors, using up to 8 threads
Optimize a model with 1 rows, 48 columns and 47 nonzeros
Model fingerprint: 0xd68a5320
Variable types: 1 continuous, 47 integer (47 binary)
Coefficient statistics:
  Matrix range     [1e+00, 1e+01]
  Objective range  [1e+00, 1e+00]
  Bounds range     [1e+01, 1e+01]
  RHS range        [1e+01, 1e+01]
Presolve time: 0.00s
Presolved: 1 rows, 48 columns, 47 nonzeros
Variable types: 1 continuous, 47 integer (47 binary)

Root simplex log...

Iteration    Objective       Primal Inf.    Dual Inf.      Time
       0   -1.3791179e+01   1.193284e-01   0.000000e+00     15s
       4   -1.3791179e+01   0.000000e+00   0.000000e+00     15s

Root relaxation: objective -1.379118e+01, 4 iterations, 0.00 seconds

    Nodes    |    Current Node    |     Objective Bounds      |     Work
 Expl Unexpl |  Obj  Depth IntInf | Incumbent    BestBd   Gap | It/Node Time

     0     0   -9.63780    0    2          -   -9.63780      -     -   15s
H    0     0                       0.8398238   -9.63780  1248%     -   15s
H    0     0                       0.8131069   -9.63780  1285%     -   15s
     0     0   -6.69057    0    4    0.81311   -6.69057   923%     -   15s
H    0     0                       0.7681217   -6.69057   971%     -   15s
     0     0   -6.32480    0    6    0.76812   -6.32480   923%     -   16s
H    0     0                       0.7681217   -6.32480   923%     -   16s
     0     0   -5.84750    0    6    0.76812   -5.84750   861%     -   16s
H    0     0                       0.7618469   -5.84750   868%     -   17s
     0     0   -5.79783    0    6    0.76185   -5.79783   861%     -   17s
     0     0   -5.76624    0    8    0.76185   -5.76624   857%     -   17s
     0     0   -5.75672    0    8    0.76185   -5.75672   856%     -   17s
     0     0   -5.74752    0    8    0.76185   -5.74752   854%     -   17s
     0     2   -5.71427    0    8    0.76185   -5.71427   850%     -   18s
*  168    16              10       0.7407493   -1.31636   278%   3.4   19s

Cutting planes:
  Cover: 1
  MIR: 8
  Lazy constraints: 44

Explored 235 nodes (798 simplex iterations) in 20.02 seconds
Thread count was 8 (of 8 available processors)

Solution count 5: 0.740749 0.761847 0.768122 ... 0.839824

Optimal solution found (tolerance 1.00e-04)
Best objective 7.407492693133e-01, best bound 7.407492693133e-01, gap 0.0000%

User-callback calls 662, time in user-callback 23.54 sec
